70
2 0 2
2 1 8
3 1 4
3 2 6
4 2 9
5 0 1
5 3 4
5 4 6
6 1 6
6 4 8
7 0 4
7 1 3
7 2 2
7 5 4
8 0 9
8 2 5
8 4 3
9 0 1
9 1 7
9 4 1
9 5 1
9 8 6
10 0 5
10 4 6
10 8 4
11 3 4
11 4 7
11 5 7
11 6 6
11 7 4
11 9 5
12 0 2
12 1 2
12 2 7
12 3 6
12 5 2
12 9 1
12 11 9
13 2 4
13 4 3
13 7 8
13 8 8
13 11 5
14 1 2
14 5 9
14 11 3
14 12 1
15 0 9
15 1 7
15 5 5
15 6 4
15 7 4
15 9 1
15 11 2
15 12 5
15 13 5
16 2 5
16 3 7
16 7 7
16 8 4
16 10 1
16 11 2
16 15 4
17 0 7
17 1 2
17 7 4
17 8 8
17 9 2
17 12 5
17 13 6
17 14 7
18 1 8
18 2 7
18 3 4
18 5 2
18 6 1
18 7 9
18 8 7
18 9 7
18 11 2
18 12 9
18 15 4
18 16 2
18 17 7
19 5 2
19 7 4
19 8 5
19 10 5
19 17 9
20 2 7
20 5 7
20 7 5
20 9 2
20 11 3
20 13 4
20 15 9
20 18 1
21 8 4
21 9 4
21 10 6
21 13 1
21 15 4
21 16 1
22 0 6
22 1 4
22 2 6
22 3 4
22 7 5
22 11 2
22 12 9
22 13 3
22 14 8
22 15 3
22 16 1
22 17 1
22 19 5
22 21 2
23 0 2
23 1 6
23 6 9
23 7 9
23 8 1
23 11 4
23 12 7
23 14 1
23 16 7
23 17 2
23 19 5
23 20 1
24 3 2
24 4 7
24 6 6
24 7 5
24 11 2
24 13 7
24 14 7
24 15 5
24 17 1
24 20 7
24 21 5
24 22 4
24 23 1
25 1 3
25 2 1
25 4 7
25 5 9
25 6 1
25 9 1
25 10 2
25 13 5
25 14 3
25 15 1
25 16 9
25 19 9
25 21 3
25 23 3
26 0 8
26 3 5
26 5 3
26 6 3
26 7 8
26 12 6
26 13 8
26 14 1
26 15 6
26 18 2
26 19 5
26 20 9
26 22 6
26 23 6
26 24 5
26 25 8
27 3 1
27 8 1
27 9 1
27 10 1
27 11 6
27 13 6
27 14 6
27 16 9
27 24 5
27 25 5
28 2 9
28 4 4
28 5 5
28 6 7
28 8 2
28 11 5
28 12 2
28 13 8
28 18 9
28 19 8
28 26 9
29 1 9
29 5 3
29 6 9
29 9 9
29 18 5
29 20 3
29 22 7
29 24 7
29 25 8
29 28 4
30 0 6
30 4 9
30 5 1
30 6 3
30 9 4
30 10 7
30 12 4
30 13 2
30 15 4
30 18 8
30 21 4
30 23 9
30 24 1
30 25 5
30 26 5
30 28 6
31 1 1
31 2 1
31 4 1
31 7 2
31 8 3
31 9 7
31 10 8
31 11 6
31 13 4
31 14 7
31 16 2
31 18 1
31 19 9
31 21 8
31 22 5
31 24 1
31 26 9
31 28 4
32 1 9
32 6 4
32 7 7
32 8 5
32 9 2
32 18 9
32 19 4
32 20 1
32 22 1
32 23 9
32 24 6
32 28 5
32 30 6
33 5 5
33 10 3
33 12 9
33 13 8
33 14 1
33 15 6
33 17 2
33 18 1
33 20 8
33 21 5
33 22 5
33 26 5
34 0 2
34 1 2
34 10 5
34 11 9
34 20 6
34 24 9
34 25 5
34 26 4
34 27 1
34 30 6
34 31 5
34 33 8
35 1 8
35 2 8
35 3 6
35 5 1
35 6 4
35 8 3
35 10 1
35 11 5
35 13 2
35 16 7
35 19 6
35 25 6
35 27 2
35 33 4
36 1 3
36 3 4
36 6 4
36 9 8
36 10 1
36 16 7
36 17 5
36 19 1
36 20 9
36 21 4
36 22 9
36 24 6
36 27 3
36 29 1
36 31 6
36 32 9
36 35 8
37 0 8
37 1 9
37 2 5
37 3 8
37 4 1
37 5 8
37 6 4
37 7 1
37 8 4
37 9 6
37 12 8
37 15 5
37 16 2
37 17 7
37 18 9
37 23 7
37 26 4
37 29 7
37 32 1
37 34 9
38 4 1
38 10 6
38 12 3
38 15 5
38 17 5
38 18 1
38 22 5
38 23 6
38 25 3
38 27 1
38 28 1
38 29 9
38 30 1
38 32 6
38 35 2
39 0 3
39 2 9
39 5 1
39 11 6
39 13 2
39 15 1
39 17 8
39 18 2
39 20 9
39 21 4
39 23 4
39 26 2
39 28 8
39 33 7
39 34 5
39 35 7
39 36 7
39 37 5
39 38 4
40 4 8
40 5 5
40 6 9
40 8 7
40 9 1
40 10 2
40 12 8
40 14 4
40 15 6
40 17 5
40 19 9
40 27 5
40 28 8
40 31 8
40 32 4
40 33 2
40 36 6
40 39 7
41 0 6
41 1 1
41 2 9
41 4 4
41 7 7
41 11 2
41 13 9
41 15 4
41 21 9
41 22 2
41 23 9
41 25 1
41 27 4
41 28 9
41 29 1
41 32 1
41 33 7
41 35 8
41 36 6
41 37 7
41 38 1
42 1 3
42 3 4
42 4 8
42 5 8
42 6 4
42 9 9
42 11 6
42 13 7
42 14 5
42 15 4
42 16 3
42 17 1
42 18 7
42 19 2
42 22 4
42 26 6
42 27 5
42 28 6
42 29 7
42 31 6
42 33 4
42 34 7
42 37 1
42 41 5
43 2 7
43 4 4
43 5 1
43 9 5
43 10 7
43 11 9
43 14 7
43 16 8
43 18 2
43 20 6
43 21 9
43 22 5
43 23 9
43 25 5
43 30 5
43 32 1
43 33 3
43 34 6
43 37 9
43 38 4
43 39 8
43 41 6
43 42 8
44 0 4
44 3 5
44 4 1
44 5 5
44 6 1
44 7 2
44 8 6
44 10 2
44 14 5
44 16 5
44 17 8
44 18 7
44 19 1
44 22 8
44 24 6
44 26 7
44 28 3
44 35 9
44 37 8
44 38 5
44 39 5
44 42 2
44 43 9
45 0 1
45 1 7
45 2 3
45 4 5
45 5 4
45 6 8
45 9 1
45 12 3
45 13 5
45 15 5
45 17 2
45 22 8
45 23 9
45 27 9
45 28 2
45 36 1
45 38 4
45 44 6
46 1 5
46 2 9
46 3 1
46 4 7
46 9 5
46 10 4
46 12 4
46 15 7
46 16 1
46 18 6
46 20 7
46 22 7
46 24 9
46 27 2
46 28 6
46 29 7
46 32 9
46 34 3
46 38 3
46 39 4
46 40 5
46 43 5
46 44 4
47 4 7
47 6 2
47 10 3
47 11 1
47 12 1
47 15 8
47 16 5
47 19 6
47 21 2
47 22 3
47 24 6
47 25 1
47 26 1
47 29 9
47 30 6
47 31 6
47 32 9
47 33 3
47 35 4
47 36 7
47 37 7
47 38 5
47 40 1
47 44 8
48 1 2
48 2 7
48 5 5
48 7 8
48 9 8
48 11 3
48 16 4
48 18 1
48 19 8
48 20 5
48 21 7
48 25 7
48 27 7
48 30 9
48 31 7
48 32 9
48 33 1
48 37 9
48 38 9
48 39 2
48 40 8
48 41 5
48 45 9
48 46 8
49 1 7
49 2 9
49 4 9
49 5 1
49 6 2
49 9 3
49 10 5
49 15 8
49 18 2
49 20 8
49 21 7
49 22 9
49 23 4
49 24 7
49 28 1
49 29 6
49 30 1
49 33 1
49 34 6
49 35 9
49 36 7
49 40 9
49 41 9
49 42 3
49 43 5
49 46 4
50 0 2
50 1 9
50 2 1
50 4 6
50 5 1
50 6 7
50 7 6
50 11 8
50 13 9
50 16 5
50 17 2
50 18 4
50 19 3
50 21 9
50 22 3
50 24 5
50 25 4
50 26 5
50 28 7
50 29 2
50 32 3
50 33 8
50 34 9
50 35 9
50 38 7
50 40 8
50 41 7
50 42 1
50 44 3
50 45 2
50 46 7
50 49 7
51 2 6
51 3 9
51 7 2
51 8 7
51 9 8
51 10 5
51 12 7
51 15 9
51 20 5
51 22 5
51 23 2
51 24 9
51 28 5
51 31 2
51 33 5
51 34 6
51 35 2
51 36 8
51 43 5
51 47 9
51 48 9
51 50 5
52 1 7
52 4 8
52 6 7
52 7 3
52 13 7
52 15 6
52 16 6
52 21 8
52 22 2
52 25 5
52 27 7
52 28 4
52 30 1
52 32 5
52 39 3
52 40 1
52 41 1
52 44 4
52 47 6
52 51 7
53 7 5
53 10 9
53 11 5
53 14 2
53 18 7
53 21 8
53 25 5
53 27 2
53 29 7
53 30 9
53 31 4
53 32 7
53 34 3
53 36 9
53 38 7
53 39 3
53 41 1
53 44 4
53 47 8
53 49 8
53 51 6
54 4 3
54 6 9
54 7 9
54 8 6
54 9 7
54 10 8
54 11 7
54 13 1
54 14 9
54 15 6
54 16 9
54 18 9
54 22 8
54 26 2
54 29 7
54 32 4
54 33 7
54 35 2
54 36 1
54 37 7
54 38 3
54 39 5
54 41 2
54 43 7
54 44 4
54 46 5
54 50 6
55 0 5
55 3 6
55 5 7
55 6 4
55 8 7
55 9 9
55 10 3
55 11 1
55 12 4
55 13 9
55 17 1
55 18 9
55 19 2
55 20 1
55 22 5
55 23 9
55 26 8
55 28 4
55 29 7
55 31 2
55 35 3
55 36 2
55 38 7
55 40 8
55 41 3
55 46 5
55 48 8
55 53 2
56 0 5
56 1 1
56 3 8
56 4 7
56 5 8
56 6 8
56 7 1
56 9 7
56 10 8
56 11 6
56 13 4
56 15 9
56 18 3
56 19 7
56 21 9
56 22 7
56 24 1
56 25 5
56 26 9
56 28 6
56 29 7
56 31 4
56 32 5
56 33 5
56 36 7
56 39 4
56 42 5
56 43 8
56 45 4
56 50 9
56 51 1
56 52 6
56 55 9
57 0 1
57 2 7
57 6 1
57 7 7
57 9 9
57 10 7
57 11 8
57 12 8
57 14 6
57 17 3
57 18 8
57 20 9
57 22 2
57 23 5
57 24 7
57 25 8
57 29 1
57 35 9
57 36 8
57 37 5
57 39 1
57 40 5
57 41 2
57 42 4
57 43 2
57 46 9
57 47 2
57 48 1
57 53 2
57 54 5
57 55 5
58 0 4
58 4 2
58 5 3
58 6 4
58 7 6
58 8 7
58 9 4
58 10 4
58 13 3
58 16 5
58 17 4
58 18 6
58 20 1
58 21 1
58 22 6
58 23 8
58 24 1
58 30 4
58 31 6
58 32 6
58 33 7
58 34 4
58 36 5
58 38 8
58 39 6
58 41 4
58 44 5
58 46 6
58 55 4
59 3 5
59 4 7
59 7 9
59 8 7
59 10 7
59 11 7
59 12 5
59 15 4
59 21 7
59 22 8
59 24 8
59 26 9
59 28 4
59 30 1
59 31 6
59 33 2
59 35 6
59 37 2
59 40 2
59 43 7
59 44 9
59 45 9
59 46 6
59 47 3
59 48 5
59 49 4
59 50 6
59 54 8
59 55 9
59 57 2
60 0 8
60 1 9
60 2 8
60 4 5
60 6 4
60 8 5
60 9 4
60 10 1
60 12 8
60 14 7
60 15 2
60 16 3
60 22 4
60 23 8
60 25 3
60 28 6
60 29 4
60 30 7
60 31 9
60 33 2
60 35 1
60 37 9
60 41 9
60 42 6
60 45 9
60 46 4
60 52 3
60 53 2
60 55 5
60 56 1
60 57 7
60 58 8
60 59 4
61 1 3
61 6 9
61 7 7
61 8 9
61 9 1
61 10 3
61 11 3
61 17 2
61 19 9
61 22 4
61 24 7
61 25 5
61 28 8
61 32 1
61 33 3
61 37 7
61 39 6
61 40 7
61 42 2
61 43 4
61 51 2
61 53 2
61 58 4
62 0 5
62 2 3
62 3 7
62 4 9
62 5 7
62 6 5
62 7 3
62 8 4
62 9 5
62 12 6
62 18 2
62 24 2
62 26 3
62 28 2
62 29 4
62 34 3
62 35 6
62 38 9
62 39 2
62 40 9
62 41 1
62 42 9
62 43 9
62 44 6
62 45 6
62 47 2
62 48 2
62 54 7
62 60 5
62 61 2
63 0 6
63 3 8
63 4 6
63 6 1
63 9 4
63 10 6
63 13 4
63 14 8
63 15 1
63 16 1
63 19 7
63 20 8
63 22 5
63 23 7
63 24 4
63 25 7
63 26 1
63 27 5
63 28 1
63 30 6
63 32 6
63 34 4
63 36 1
63 37 9
63 39 9
63 40 3
63 41 8
63 43 3
63 44 3
63 45 2
63 46 8
63 47 5
63 51 5
63 55 4
63 56 5
63 57 3
63 62 8
64 0 6
64 1 4
64 7 6
64 10 7
64 11 4
64 12 8
64 14 3
64 15 4
64 16 1
64 17 7
64 20 6
64 22 3
64 23 3
64 25 3
64 28 4
64 30 7
64 32 9
64 34 7
64 36 4
64 37 1
64 40 9
64 43 2
64 45 8
64 48 8
64 49 2
64 50 2
64 52 1
64 54 6
64 55 2
64 58 8
64 59 6
64 62 2
65 2 5
65 3 2
65 7 5
65 8 3
65 9 4
65 10 9
65 11 4
65 13 4
65 16 4
65 19 1
65 23 7
65 24 5
65 25 7
65 27 2
65 28 3
65 29 6
65 34 3
65 37 2
65 39 9
65 40 7
65 41 1
65 43 3
65 44 3
65 46 6
65 48 5
65 50 6
65 53 8
65 57 4
65 58 1
65 61 3
66 2 5
66 3 3
66 7 8
66 8 7
66 9 6
66 14 3
66 16 6
66 17 3
66 20 1
66 21 1
66 22 8
66 24 1
66 25 8
66 28 2
66 32 2
66 34 9
66 35 9
66 38 2
66 44 5
66 45 1
66 48 6
66 51 3
66 53 1
66 54 3
66 59 9
66 61 5
66 64 8
66 65 9
67 0 5
67 1 8
67 2 3
67 3 9
67 8 7
67 9 5
67 13 2
67 15 4
67 16 9
67 20 2
67 21 8
67 22 3
67 24 4
67 25 7
67 26 8
67 27 2
67 30 9
67 35 8
67 38 2
67 39 5
67 40 4
67 41 5
67 44 9
67 46 5
67 47 2
67 48 3
67 49 8
67 51 1
67 53 7
67 54 1
67 58 6
67 60 4
67 61 4
67 62 8
67 64 4
68 0 7
68 3 7
68 8 1
68 10 2
68 12 6
68 16 6
68 18 6
68 19 4
68 20 3
68 22 7
68 24 8
68 25 3
68 26 3
68 28 9
68 33 7
68 36 8
68 37 8
68 38 4
68 40 1
68 42 2
68 46 5
68 50 8
68 51 1
68 52 1
68 53 4
68 54 4
68 56 2
68 58 1
68 59 9
68 61 9
68 62 2
68 67 1
69 0 1
69 2 9
69 4 1
69 7 4
69 10 4
69 12 7
69 15 7
69 16 9
69 17 8
69 20 5
69 24 3
69 25 2
69 27 7
69 28 7
69 29 1
69 30 2
69 33 4
69 34 4
69 36 3
69 38 8
69 39 8
69 40 4
69 42 9
69 45 7
69 48 9
69 49 7
69 50 6
69 53 4
69 54 4
69 57 3
69 59 9
69 61 4
69 63 9
69 65 7
69 66 7
